(declare-fun pow2 (Int) Int)
(declare-fun k () Int)
(declare-fun s () Int)
(declare-fun t () Int)
(declare-fun madebysaiyan_0 (Int Int) Int)
(assert (>= k 1))
(assert (in_range k s))
(assert (and (distinct t 0) (>= (ite (= 0 (pow2 (* t (madebysaiyan_0 0 s)))) (* s (pow2 (pow2 (- k 1)))) (mod (* s (pow2 (pow2 (- k 1)))) (pow2 k))) t)))
(assert pow2_ax)
(assert assertion_ltr)
(check-sat)
